
<<< setup


<<< generate

Version identifier: 22.1.1.0 | 2022-11-28 | 9160aff4d
CPXPARAM_TimeLimit                               1800
Found incumbent of value 0.000000 after 0.00 sec. (0.01 ticks)
Tried aggregator 2 times.
MIP Presolve eliminated 12 rows and 15 columns.
MIP Presolve modified 30 coefficients.
Aggregator did 60 substitutions.
Reduced MIP has 91 rows, 153 columns, and 276 nonzeros.
Reduced MIP has 81 binaries, 12 generals, 0 SOSs, and 60 indicators.
Presolve time = 0.00 sec. (0.33 ticks)
Probing fixed 0 vars, tightened 15 bounds.
Probing time = 0.00 sec. (0.04 ticks)
Tried aggregator 2 times.
Detecting symmetries...
Aggregator did 15 substitutions.
Reduced MIP has 76 rows, 138 columns, and 246 nonzeros.
Reduced MIP has 81 binaries, 27 generals, 0 SOSs, and 60 indicators.
Presolve time = 0.00 sec. (0.30 ticks)
Probing time = 0.00 sec. (0.03 ticks)
Clique table members: 30.
MIP emphasis: balance optimality and feasibility.
MIP search method: dynamic search.
Parallel mode: deterministic, using up to 8 threads.
Root relaxation solution time = 0.00 sec. (0.08 ticks)

        Nodes                                         Cuts/
   Node  Left     Objective  IInf  Best Integer    Best Bound    ItCnt     Gap

*     0+    0                            0.0000       12.0000              --- 
*     0+    0                            4.0000       12.0000           200.00%
      0     0       10.0000    46        4.0000       10.0000        1  150.00%
      0     0       10.0000    43        4.0000      Cuts: 23       39  150.00%
      0     0       10.0000    28        4.0000      Cuts: 19       55  150.00%
*     0+    0                           10.0000       10.0000             0.00%
      0     0        cutoff             10.0000       10.0000       55    0.00%
      0     0        cutoff             10.0000       10.0000       55    0.00%
Elapsed time = 0.01 sec. (3.20 ticks, tree = 0.01 MB, solutions = 3)

Clique cuts applied:  28
Cover cuts applied:  1
Implied bound cuts applied:  12

Root node processing (before b&c):
  Real time             =    0.01 sec. (3.20 ticks)
Parallel b&c, 8 threads:
  Real time             =    0.00 sec. (0.00 ticks)
  Sync time (average)   =    0.00 sec.
  Wait time (average)   =    0.00 sec.
                          ------------
Total (root+branch&cut) =    0.01 sec. (3.20 ticks)

<<< solve


OBJECTIVE: 10

<<< post process


<<< done

